Problem:    lp
Rows:       3
Columns:    2 (2 integer, 0 binary)
Non-zeros:  6
Status:     INTEGER OPTIMAL
Objective:  z = 108 (MAXimum)

   No.   Row name        Activity     Lower bound   Upper bound
------ ------------    ------------- ------------- -------------
     1 z                         108                             
     2 st1                        26                          30 
     3 st2                        24                          24 

   No. Column name       Activity     Lower bound   Upper bound
------ ------------    ------------- ------------- -------------
     1 x            *              4             0               
     2 y            *              6             0               

Integer feasibility conditions:

KKT.PE: max.abs.err = 0.00e+00 on row 0
        max.rel.err = 0.00e+00 on row 0
        High quality

KKT.PB: max.abs.err = 0.00e+00 on row 0
        max.rel.err = 0.00e+00 on row 0
        High quality

End of output
